185 184 198 199 200 201 202 204 203 208 207 206 205 197 196 195 194 209 210 211 212 213 214 215 216 217 223 224 222 221 220 218 219 193 192 191 190 226 225 189 227 228 229 230 231 533 532 531 530 233 232 234 235 236 237 240 239 238 246 247 245 244 243 242 241 248 249 250 251 252 254 253 255 256 257 300 299 258 259 260 261 262 263 264 265 266 298 297 296 295 294 293 270 269 268 267 271 272 273 274 275 292 291 330 331 332 333 288 289 290 276 277 278 279 282 281 280 287 286 285 284 283 334 335 336 337 338 339 340 341 344 343 342 366 329 328 327 326 325 324 323 322 373 374 315 314 316 317 321 320 319 318 305 306 304 307 303 301 302 508 507 506 509 510 511 513 512 527 528 529 490 489 488 534 535 487 486 493 524 525 492 491 526 523 521 522 514 515 516 517 520 518 519 498 502 503 504 505 308 309 310 313 312 311 451 501 500 499 453 452 461 462 463 460 459 458 457 456 455 454 439 440 441 450 449 448 447 446 442 443 444 445 431 381 380 379 378 377 376 375 395 396 371 372 370 369 368 367 365 398 397 394 393 391 392 390 389 388 387 386 382 385 383 384 409 408 407 399 406 405 404 400 403 402 401 360 359 361 362 363 364 346 345 347 348 349 350 351 352 353 354 355 358 357 356 412 411 410 418 419 417 413 414 415 416 420 421 422 423 424 425 426 427 428 429 430 432 433 434 435 436 438 437 3 2 1 4 0 5 573 572 571 467 466 465 464 497 496 468 469 470 471 495 494 472 473 474 570 569 568 20 19 18 17 8 7 6 9 10 11 16 15 14 13 12 21 23 22 31 32 30 29 28 25 24 26 27 567 566 565 564 549 563 562 561 560 559 550 551 101 100 99 98 96 95 97 94 93 92 91 46 45 555 554 553 552 556 557 558 34 33 35 36 37 38 40 41 39 42 43 44 47 48 49 54 55 56 53 52 50 51 84 85 86 82 83 57 58 81 87 90 89 88 77 78 62 79 80 59 60 61 63 64 76 75 74 73 72 71 65 66 67 68 70 69 124 125 126 127 128 116 115 114 110 111 112 113 161 160 159 156 157 158 136 135 134 133 132 131 130 129 137 138 139 140 141 151 150 149 152 148 147 142 143 144 145 146 153 155 154 165 164 166 167 163 162 168 169 171 170 172 175 174 173 108 109 107 117 123 122 121 120 119 118 106 105 104 103 102 547 542 541 543 544 545 546 548 478 477 479 480 476 475 482 481 483 485 484 536 537 539 538 540 176 177 180 181 179 178 187 188 186 182 183